p edge 160 446
c 2371
e 0 44 1 0
e 0 152 1 1
e 1 25 4 3
e 1 147 1 4
e 1 96 1 6
e 1 102 2 7
e 2 73 2 9
e 2 31 1 11
e 2 148 1 13
e 3 50 2 15
e 3 107 31 17
e 4 62 31 20
e 4 80 1 21
e 5 87 1 23
e 5 80 1 26
e 6 48 1 29
e 7 32 1 33
e 8 45 1 38
e 9 59 14 41
e 10 123 1 42
e 11 109 1 45
e 11 18 1 47
e 11 50 2 48
e 12 96 1 50
e 12 42 28 52
e 12 139 1 53
e 13 145 1 54
e 13 113 2 55
e 13 110 24 56
e 13 122 1 57
e 14 138 1 59
e 14 24 1 62
e 14 25 6 63
e 15 19 1 66
e 15 110 27 68
e 16 33 1 70
e 16 132 1 71
e 17 94 1 74
e 19 49 2 77
e 19 52 32 78
e 20 75 1 80
e 20 95 1 81
e 20 36 1 82
e 21 63 1 84
e 21 51 1 86
e 21 128 1 88
e 22 63 1 90
e 22 111 1 92
e 22 122 1 93
e 23 39 2 94
e 23 155 2 96
e 24 32 1 97
e 24 92 1 99
e 25 70 3 100
e 26 92 1 102
e 26 114 2 104
e 27 120 2 107
e 28 113 3 108
e 28 53 1 110
e 28 60 2 111
e 28 89 1 112
e 29 151 1 114
e 29 66 1 115
e 31 83 1 119
e 31 91 1 120
e 32 95 1 122
e 33 102 1 124
e 33 140 2 127
e 34 140 1 128
e 34 137 1 129
e 34 74 2 131
e 35 46 1 132
e 35 47 1 133
e 35 86 1 134
e 36 147 1 136
e 36 78 1 137
e 37 49 1 139
e 38 119 1 142
e 38 64 1 143
e 38 143 2 145
e 39 55 1 146
e 39 67 1 148
e 39 107 14 149
e 40 62 30 153
e 40 56 13 158
e 40 52 28 159
e 40 48 26 161
e 40 59 36 162
e 40 96 28 163
e 40 110 49 164
e 42 75 43 169
e 42 65 49 170
e 42 79 8 174
e 42 110 41 176
e 42 43 5 177
e 42 84 22 179
e 42 99 17 180
e 42 93 37 181
e 42 154 14 182
e 42 120 30 183
e 42 59 28 184
e 42 62 27 185
e 42 146 11 186
e 43 74 2 187
e 43 55 1 189
e 44 85 1 190
e 44 61 2 191
e 44 136 1 193
e 44 150 2 194
e 45 153 1 195
e 45 84 1 197
e 45 103 1 198
e 47 121 1 202
e 47 144 1 203
e 48 62 13 205
e 50 132 3 207
e 50 87 1 209
e 51 144 2 210
e 51 58 1 211
e 52 143 30 214
e 52 122 41 220
e 52 108 8 221
e 52 62 48 223
e 52 73 2 224
e 52 81 16 225
e 52 107 46 226
e 52 110 35 227
e 52 147 18 228
e 54 59 17 233
e 54 107 3 234
e 55 72 2 236
e 56 82 5 239
e 56 107 42 240
e 56 109 3 241
e 57 157 1 243
e 57 97 1 244
e 57 112 19 247
e 58 105 2 248
e 59 95 25 250
e 59 149 16 252
e 59 62 4 253
e 59 124 47 254
e 59 134 33 255
e 59 79 11 256
e 59 71 25 257
e 59 110 7 260
e 59 112 24 261
e 59 130 39 262
e 59 146 26 263
e 60 79 3 266
e 60 100 2 268
e 62 154 22 275
e 62 99 38 277
e 62 142 41 278
e 62 112 30 279
e 62 120 41 280
e 62 146 2 281
e 63 98 1 282
e 64 68 1 283
e 64 142 1 285
e 66 92 1 288
e 66 82 1 289
e 67 91 1 290
e 67 90 1 291
e 68 106 1 292
e 69 128 1 295
e 69 133 1 296
e 70 99 1 300
e 70 129 1 301
e 71 76 5 304
e 71 146 28 305
e 72 77 1 307
e 72 87 1 308
e 72 137 1 309
e 72 149 1 310
e 73 89 1 311
e 73 111 2 312
e 74 139 1 313
e 74 107 5 314
e 75 93 1 316
e 75 119 1 317
e 76 152 1 319
e 76 79 1 320
e 77 94 1 322
e 78 129 1 326
e 79 139 1 328
e 80 84 1 329
e 81 159 7 331
e 81 86 1 333
e 81 127 20 337
e 81 130 16 339
e 81 100 5 340
e 81 112 38 342
e 81 146 45 343
e 81 154 7 344
e 82 117 1 345
e 84 157 1 347
e 87 151 1 352
e 88 148 1 355
e 89 107 10 356
e 90 121 1 357
e 91 95 1 359
e 92 106 1 361
e 93 100 1 362
e 93 115 2 363
e 94 155 1 364
e 95 156 1 366
e 95 132 1 367
e 96 110 42 368
e 98 119 1 371
e 98 134 1 374
e 100 142 1 377
e 101 110 32 379
e 102 112 4 381
e 103 149 1 384
e 104 140 1 386
e 105 107 29 391
e 106 152 1 392
e 107 112 10 395
e 107 110 45 397
e 107 114 36 398
e 107 146 33 399
e 108 133 1 400
e 108 127 1 402
e 110 116 14 403
e 110 111 7 404
e 110 112 9 405
e 110 146 7 406
e 112 130 25 407
e 112 131 31 409
e 112 146 38 410
e 112 136 34 411
e 112 148 33 412
e 112 150 5 414
e 113 137 1 415
e 113 136 2 416
e 114 134 1 418
e 115 147 1 420
e 118 119 1 422
e 121 136 1 426
e 122 135 1 427
e 124 126 1 428
e 125 146 28 430
e 127 154 2 431
e 129 157 1 432
e 133 143 1 433
e 135 145 1 435
e 137 158 1 436
e 137 152 1 437
e 138 159 1 439
e 153 155 2 444
e 153 154 1 445
